pair_coeff 1 1 lj/cut/coul/cut 0.1094 3.39966950842 #c3
pair_coeff 2 2 lj/cut/coul/cut 0.0157 2.64953278775 #hc
pair_coeff 3 3 lj/cut/coul/cut 0.0860 3.39966950842 #ca
pair_coeff 4 4 lj/cut/coul/cut 0.0150 2.59964245953 #ha
pair_coeff 5 5 lj/cut/coul/cut 0.1700 3.00001234347 #os
pair_coeff 6 6 lj/cut/coul/cut 0.0157 2.47135304412 #h1
pair_coeff 7 7 lj/cut/coul/cut 0.2104 3.06647338784 #oh
pair_coeff 8 8 lj/cut/coul/cut 0.0000 0.0 #ho   
pair_coeff 9 9 lj/cut/coul/cut 0.1700 3.24999852378 #n3
pair_coeff 10 10 lj/cut/coul/cut 0.0157 1.06907846177 #hn
pair_coeff 11 11 lj/cut/coul/cut 0.1700 3.24999852378
pair_coeff 12 12 lj/cut/coul/cut 0.2100 2.95992190115
pair_coeff 13 13 lj/cut/coul/cut 0.0860 3.39966950842  
pair_coeff 14 14 lj/cut/coul/cut 0.1094 3.39966950842 
pair_coeff 15 15 lj/cut/coul/cut  0.1700 3.24999852378
pair_coeff 16 16 lj/cut/coul/cut  0.1700 3.24999852378 #This atom is not taking part in the simualtion
#--------------------------------------------------------
#Contains secondary amines, tertiary amines formed from reaction of primary amines and tertiary amines formed from secondary amines already present in 
#system
pair_coeff 17 17 lj/cut/coul/cut  0.1700 3.24999852378 
#---------------------------------------------------------
pair_coeff 18 18 lj/cut/coul/cut  0.1700 3.24999852378 #Tertiary amine formed after reaction of secondary amine (which is formed after conversion of primary amines)
pair_coeff 19 19 lj/cut/coul/cut  0.1700 3.24999852378 #Tertiary amine formed after reaction of secondary amine (that is already present in the system)
pair_coeff 20 20 lj/cut/coul/cut 0.1094 3.39966950842  # change of type for carbon after reaction

bond_coeff 	1	harmonic	303.1	1.535
bond_coeff 	2	harmonic	323.5	1.513
bond_coeff 	3	harmonic	303.1	1.535
bond_coeff 	4	harmonic	323.5	1.513
bond_coeff 	5	harmonic	478.4	1.387
bond_coeff 	6	harmonic	478.4	1.387
bond_coeff 	7	harmonic	478.4	1.387
bond_coeff 	8	harmonic	478.4	1.387
bond_coeff 	9	harmonic	478.4	1.387
bond_coeff 	10	harmonic	372.4	1.373
bond_coeff 	11	harmonic	478.4	1.387
bond_coeff 	12	harmonic	301.5	1.439
bond_coeff 	13	harmonic	303.1	1.535
bond_coeff 	14	harmonic	314.1	1.426
bond_coeff 	15	harmonic	303.1	1.535
bond_coeff 	16	harmonic	478.4	1.387
bond_coeff 	17	harmonic	478.4	1.387
bond_coeff 	18	harmonic	478.4	1.387
bond_coeff 	19	harmonic	478.4	1.387
bond_coeff 	20	harmonic	478.4	1.387
bond_coeff 	21	harmonic	372.4	1.373
bond_coeff 	22	harmonic	478.4	1.387
bond_coeff 	23	harmonic	301.5	1.439
bond_coeff 	24	harmonic	303.1	1.535
bond_coeff 	25	harmonic	314.1	1.426
bond_coeff 	26	harmonic	303.1	1.535
bond_coeff 	27	harmonic	303.1	1.535
bond_coeff 	28	harmonic	323.5	1.513
bond_coeff 	29	harmonic	303.1	1.535
bond_coeff 	30	harmonic	323.5	1.513
bond_coeff 	31	harmonic	478.4	1.387
bond_coeff 	32	harmonic	478.4	1.387
bond_coeff 	33	harmonic	478.4	1.387
bond_coeff 	34	harmonic	478.4	1.387
bond_coeff 	35	harmonic	478.4	1.387
bond_coeff 	36	harmonic	372.4	1.373
bond_coeff 	37	harmonic	478.4	1.387
bond_coeff 	38	harmonic	301.5	1.439
bond_coeff 	39	harmonic	303.1	1.535
bond_coeff 	40	harmonic	314.1	1.426
bond_coeff 	41	harmonic	303.1	1.535
bond_coeff 	42	harmonic	478.4	1.387
bond_coeff 	43	harmonic	478.4	1.387
bond_coeff 	44	harmonic	478.4	1.387
bond_coeff 	45	harmonic	478.4	1.387
bond_coeff 	46	harmonic	478.4	1.387
bond_coeff 	47	harmonic	372.4	1.373
bond_coeff 	48	harmonic	478.4	1.387
bond_coeff 	49	harmonic	301.5	1.439
bond_coeff 	50	harmonic	303.1	1.535
bond_coeff 	51	harmonic	314.1	1.426
bond_coeff 	52	harmonic	303.1	1.535
bond_coeff 	53	harmonic	303.1	1.535
bond_coeff 	54	harmonic	323.5	1.513
bond_coeff 	55	harmonic	303.1	1.535
bond_coeff 	56	harmonic	323.5	1.513
bond_coeff 	57	harmonic	478.4	1.387
bond_coeff 	58	harmonic	478.4	1.387
bond_coeff 	59	harmonic	478.4	1.387
bond_coeff 	60	harmonic	478.4	1.387
bond_coeff 	61	harmonic	478.4	1.387
bond_coeff 	62	harmonic	372.4	1.373
bond_coeff 	63	harmonic	478.4	1.387
bond_coeff 	64	harmonic	301.5	1.439
bond_coeff 	65	harmonic	303.1	1.535
bond_coeff 	66	harmonic	314.1	1.426
bond_coeff 	67	harmonic	303.1	1.535
bond_coeff 	68	harmonic	478.4	1.387
bond_coeff 	69	harmonic	478.4	1.387
bond_coeff 	70	harmonic	478.4	1.387
bond_coeff 	71	harmonic	478.4	1.387
bond_coeff 	72	harmonic	478.4	1.387
bond_coeff 	73	harmonic	372.4	1.373
bond_coeff 	74	harmonic	478.4	1.387
bond_coeff 	75	harmonic	301.5	1.439
bond_coeff 	76	harmonic	303.1	1.535
bond_coeff 	77	harmonic	314.1	1.426
bond_coeff 	78	harmonic	303.1	1.535
bond_coeff 	79	harmonic	303.1	1.535
bond_coeff 	80	harmonic	323.5	1.513
bond_coeff 	81	harmonic	303.1	1.535
bond_coeff 	82	harmonic	323.5	1.513
bond_coeff 	83	harmonic	478.4	1.387
bond_coeff 	84	harmonic	478.4	1.387
bond_coeff 	85	harmonic	478.4	1.387
bond_coeff 	86	harmonic	478.4	1.387
bond_coeff 	87	harmonic	478.4	1.387
bond_coeff 	88	harmonic	372.4	1.373
bond_coeff 	89	harmonic	478.4	1.387
bond_coeff 	90	harmonic	301.5	1.439
bond_coeff 	91	harmonic	303.1	1.535
bond_coeff 	92	harmonic	314.1	1.426
bond_coeff 	93	harmonic	303.1	1.535
bond_coeff 	94	harmonic	478.4	1.387
bond_coeff 	95	harmonic	478.4	1.387
bond_coeff 	96	harmonic	478.4	1.387
bond_coeff 	97	harmonic	478.4	1.387
bond_coeff 	98	harmonic	478.4	1.387
bond_coeff 	99	harmonic	372.4	1.373
bond_coeff 	100	harmonic	478.4	1.387
bond_coeff 	101	harmonic	301.5	1.439
bond_coeff 	102	harmonic	303.1	1.535
bond_coeff 	103	harmonic	314.1	1.426
bond_coeff 	104	harmonic	303.1	1.535
bond_coeff 	105	harmonic	303.1	1.535
bond_coeff 	106	harmonic	323.5	1.513
bond_coeff 	107	harmonic	303.1	1.535
bond_coeff 	108	harmonic	323.5	1.513
bond_coeff 	109	harmonic	478.4	1.387
bond_coeff 	110	harmonic	478.4	1.387
bond_coeff 	111	harmonic	478.4	1.387
bond_coeff 	112	harmonic	478.4	1.387
bond_coeff 	113	harmonic	478.4	1.387
bond_coeff 	114	harmonic	372.4	1.373
bond_coeff 	115	harmonic	478.4	1.387
bond_coeff 	116	harmonic	301.5	1.439
bond_coeff 	117	harmonic	303.1	1.535
bond_coeff 	118	harmonic	314.1	1.426
bond_coeff 	119	harmonic	303.1	1.535
bond_coeff 	120	harmonic	478.4	1.387
bond_coeff 	121	harmonic	478.4	1.387
bond_coeff 	122	harmonic	478.4	1.387
bond_coeff 	123	harmonic	478.4	1.387
bond_coeff 	124	harmonic	478.4	1.387
bond_coeff 	125	harmonic	372.4	1.373
bond_coeff 	126	harmonic	478.4	1.387
bond_coeff 	127	harmonic	301.5	1.439
bond_coeff 	128	harmonic	303.1	1.535
bond_coeff 	129	harmonic	314.1	1.426
bond_coeff 	130	harmonic	303.1	1.535
bond_coeff 	131	harmonic	320.6	1.47
bond_coeff 	132	harmonic	320.6	1.47
bond_coeff 	133	harmonic	303.1	1.535
bond_coeff 	134	harmonic	320.6	1.47
bond_coeff 	135	harmonic	303.1	1.535
bond_coeff 	136	harmonic	320.6	1.47
bond_coeff 	137	harmonic	320.6	1.47
bond_coeff 	138	harmonic	320.6	1.47
bond_coeff 	139	harmonic	303.1	1.535
bond_coeff 	140	harmonic	320.6	1.47
bond_coeff 	141	harmonic	303.1	1.535
bond_coeff 	142	harmonic	320.6	1.47
bond_coeff 	143	harmonic	337.3	1.092
bond_coeff 	144	harmonic	337.3	1.092
bond_coeff 	145	harmonic	337.3	1.092
bond_coeff 	146	harmonic	344.3	1.087
bond_coeff 	147	harmonic	344.3	1.087
bond_coeff 	148	harmonic	344.3	1.087
bond_coeff 	149	harmonic	344.3	1.087
bond_coeff 	150	harmonic	335.9	1.093
bond_coeff 	151	harmonic	335.9	1.093
bond_coeff 	152	harmonic	335.9	1.093
bond_coeff 	153	harmonic	369.6	0.974
bond_coeff 	154	harmonic	337.3	1.092
bond_coeff 	155	harmonic	337.3	1.092
bond_coeff 	156	harmonic	337.3	1.092
bond_coeff 	157	harmonic	337.3	1.092
bond_coeff 	158	harmonic	337.3	1.092
bond_coeff 	159	harmonic	337.3	1.092
bond_coeff 	160	harmonic	344.3	1.087
bond_coeff 	161	harmonic	344.3	1.087
bond_coeff 	162	harmonic	344.3	1.087
bond_coeff 	163	harmonic	344.3	1.087
bond_coeff 	164	harmonic	335.9	1.093
bond_coeff 	165	harmonic	335.9	1.093
bond_coeff 	166	harmonic	335.9	1.093
bond_coeff 	167	harmonic	369.6	0.974
bond_coeff 	168	harmonic	337.3	1.092
bond_coeff 	169	harmonic	337.3	1.092
bond_coeff 	170	harmonic	337.3	1.092
bond_coeff 	171	harmonic	337.3	1.092
bond_coeff 	172	harmonic	337.3	1.092
bond_coeff 	173	harmonic	337.3	1.092
bond_coeff 	174	harmonic	344.3	1.087
bond_coeff 	175	harmonic	344.3	1.087
bond_coeff 	176	harmonic	344.3	1.087
bond_coeff 	177	harmonic	344.3	1.087
bond_coeff 	178	harmonic	335.9	1.093
bond_coeff 	179	harmonic	335.9	1.093
bond_coeff 	180	harmonic	335.9	1.093
bond_coeff 	181	harmonic	369.6	0.974
bond_coeff 	182	harmonic	337.3	1.092
bond_coeff 	183	harmonic	337.3	1.092
bond_coeff 	184	harmonic	337.3	1.092
bond_coeff 	185	harmonic	337.3	1.092
bond_coeff 	186	harmonic	337.3	1.092
bond_coeff 	187	harmonic	337.3	1.092
bond_coeff 	188	harmonic	344.3	1.087
bond_coeff 	189	harmonic	344.3	1.087
bond_coeff 	190	harmonic	344.3	1.087
bond_coeff 	191	harmonic	344.3	1.087
bond_coeff 	192	harmonic	335.9	1.093
bond_coeff 	193	harmonic	335.9	1.093
bond_coeff 	194	harmonic	335.9	1.093
bond_coeff 	195	harmonic	369.6	0.974
bond_coeff 	196	harmonic	337.3	1.092
bond_coeff 	197	harmonic	337.3	1.092
bond_coeff 	198	harmonic	337.3	1.092
bond_coeff 	199	harmonic	337.3	1.092
bond_coeff 	200	harmonic	337.3	1.092
bond_coeff 	201	harmonic	337.3	1.092
bond_coeff 	202	harmonic	344.3	1.087
bond_coeff 	203	harmonic	344.3	1.087
bond_coeff 	204	harmonic	344.3	1.087
bond_coeff 	205	harmonic	344.3	1.087
bond_coeff 	206	harmonic	335.9	1.093
bond_coeff 	207	harmonic	335.9	1.093
bond_coeff 	208	harmonic	335.9	1.093
bond_coeff 	209	harmonic	369.6	0.974
bond_coeff 	210	harmonic	337.3	1.092
bond_coeff 	211	harmonic	337.3	1.092
bond_coeff 	212	harmonic	337.3	1.092
bond_coeff 	213	harmonic	337.3	1.092
bond_coeff 	214	harmonic	337.3	1.092
bond_coeff 	215	harmonic	337.3	1.092
bond_coeff 	216	harmonic	344.3	1.087
bond_coeff 	217	harmonic	344.3	1.087
bond_coeff 	218	harmonic	344.3	1.087
bond_coeff 	219	harmonic	344.3	1.087
bond_coeff 	220	harmonic	335.9	1.093
bond_coeff 	221	harmonic	335.9	1.093
bond_coeff 	222	harmonic	335.9	1.093
bond_coeff 	223	harmonic	369.6	0.974
bond_coeff 	224	harmonic	337.3	1.092
bond_coeff 	225	harmonic	337.3	1.092
bond_coeff 	226	harmonic	337.3	1.092
bond_coeff 	227	harmonic	337.3	1.092
bond_coeff 	228	harmonic	337.3	1.092
bond_coeff 	229	harmonic	337.3	1.092
bond_coeff 	230	harmonic	344.3	1.087
bond_coeff 	231	harmonic	344.3	1.087
bond_coeff 	232	harmonic	344.3	1.087
bond_coeff 	233	harmonic	344.3	1.087
bond_coeff 	234	harmonic	335.9	1.093
bond_coeff 	235	harmonic	335.9	1.093
bond_coeff 	236	harmonic	335.9	1.093
bond_coeff 	237	harmonic	369.6	0.974
bond_coeff 	238	harmonic	337.3	1.092
bond_coeff 	239	harmonic	337.3	1.092
bond_coeff 	240	harmonic	337.3	1.092
bond_coeff 	241	harmonic	337.3	1.092
bond_coeff 	242	harmonic	337.3	1.092
bond_coeff 	243	harmonic	337.3	1.092
bond_coeff 	244	harmonic	344.3	1.087
bond_coeff 	245	harmonic	344.3	1.087
bond_coeff 	246	harmonic	344.3	1.087
bond_coeff 	247	harmonic	344.3	1.087
bond_coeff 	248	harmonic	335.9	1.093
bond_coeff 	249	harmonic	335.9	1.093
bond_coeff 	250	harmonic	335.9	1.093
bond_coeff 	251	harmonic	369.6	0.974
bond_coeff 	252	harmonic	337.3	1.092
bond_coeff 	253	harmonic	337.3	1.092
bond_coeff 	254	harmonic	337.3	1.092
bond_coeff 	255	harmonic	337.3	1.092
bond_coeff 	256	harmonic	337.3	1.092
bond_coeff 	257	harmonic	337.3	1.092
bond_coeff 	258	harmonic	344.3	1.087
bond_coeff 	259	harmonic	344.3	1.087
bond_coeff 	260	harmonic	344.3	1.087
bond_coeff 	261	harmonic	344.3	1.087
bond_coeff 	262	harmonic	335.9	1.093
bond_coeff 	263	harmonic	335.9	1.093
bond_coeff 	264	harmonic	335.9	1.093
bond_coeff 	265	harmonic	369.6	0.974
bond_coeff 	266	harmonic	337.3	1.092
bond_coeff 	267	harmonic	337.3	1.092
bond_coeff 	268	harmonic	337.3	1.092
bond_coeff 	269	harmonic	337.3	1.092
bond_coeff 	270	harmonic	337.3	1.092
bond_coeff 	271	harmonic	337.3	1.092
bond_coeff 	272	harmonic	344.3	1.087
bond_coeff 	273	harmonic	344.3	1.087
bond_coeff 	274	harmonic	344.3	1.087
bond_coeff 	275	harmonic	344.3	1.087
bond_coeff 	276	harmonic	335.9	1.093
bond_coeff 	277	harmonic	335.9	1.093
bond_coeff 	278	harmonic	335.9	1.093
bond_coeff 	279	harmonic	369.6	0.974
bond_coeff 	280	harmonic	337.3	1.092
bond_coeff 	281	harmonic	337.3	1.092
bond_coeff 	282	harmonic	337.3	1.092
bond_coeff 	283	harmonic	394.1	1.018
bond_coeff 	284	harmonic	335.9	1.093
bond_coeff 	285	harmonic	335.9	1.093
bond_coeff 	286	harmonic	335.9	1.093
bond_coeff 	287	harmonic	335.9	1.093
bond_coeff 	288	harmonic	394.1	1.018
bond_coeff 	289	harmonic	394.1	1.018
bond_coeff 	290	harmonic	335.9	1.093
bond_coeff 	291	harmonic	335.9	1.093
bond_coeff 	292	harmonic	335.9	1.093
bond_coeff 	293	harmonic	335.9	1.093
bond_coeff 	294	harmonic	394.1	1.018
bond_coeff 	295	harmonic	394.1	1.018
bond_coeff 	296	harmonic	394.1	1.018
bond_coeff 	297	harmonic	335.9	1.093
bond_coeff 	298	harmonic	335.9	1.093
bond_coeff 	299	harmonic	335.9	1.093
bond_coeff 	300	harmonic	335.9	1.093
bond_coeff 	301	harmonic	394.1	1.018
bond_coeff 	302	harmonic	394.1	1.018
bond_coeff 	303	harmonic	335.9	1.093
bond_coeff 	304	harmonic	335.9	1.093
bond_coeff 	305	harmonic	335.9	1.093
bond_coeff 	306	harmonic	335.9	1.093
bond_coeff 	307	harmonic	394.1	1.018
bond_coeff 	308	harmonic	394.1	1.018

angle_coeff 	1	harmonic	63.84	120.6301
angle_coeff 	2	harmonic	63.84	120.6301
angle_coeff 	3	harmonic	63.84	120.6301
angle_coeff 	4	harmonic	63.84	120.6301
angle_coeff 	5	harmonic	63.25	112.09
angle_coeff 	6	harmonic	63.21	110.63
angle_coeff 	7	harmonic	63.25	112.09
angle_coeff 	8	harmonic	63.25	112.09
angle_coeff 	9	harmonic	63.66	112.26
angle_coeff 	10	harmonic	67.18	119.9701
angle_coeff 	11	harmonic	67.18	119.9701
angle_coeff 	12	harmonic	67.18	119.9701
angle_coeff 	13	harmonic	67.18	119.9701
angle_coeff 	14	harmonic	67.18	119.9701
angle_coeff 	15	harmonic	69.79	119.2001
angle_coeff 	16	harmonic	67.18	119.9701
angle_coeff 	17	harmonic	62.27	117.9701
angle_coeff 	18	harmonic	69.79	119.2001
angle_coeff 	19	harmonic	67.78	108.42
angle_coeff 	20	harmonic	67.72	109.43
angle_coeff 	21	harmonic	63.21	110.63
angle_coeff 	22	harmonic	67.72	109.43
angle_coeff 	23	harmonic	63.25	112.09
angle_coeff 	24	harmonic	67.18	119.9701
angle_coeff 	25	harmonic	67.18	119.9701
angle_coeff 	26	harmonic	67.18	119.9701
angle_coeff 	27	harmonic	67.18	119.9701
angle_coeff 	28	harmonic	67.18	119.9701
angle_coeff 	29	harmonic	69.79	119.2001
angle_coeff 	30	harmonic	67.18	119.9701
angle_coeff 	31	harmonic	62.27	117.9701
angle_coeff 	32	harmonic	69.79	119.2001
angle_coeff 	33	harmonic	67.78	108.42
angle_coeff 	34	harmonic	67.72	109.43
angle_coeff 	35	harmonic	63.21	110.63
angle_coeff 	36	harmonic	67.72	109.43
angle_coeff 	37	harmonic	63.84	120.6301
angle_coeff 	38	harmonic	63.84	120.6301
angle_coeff 	39	harmonic	63.84	120.6301
angle_coeff 	40	harmonic	63.84	120.6301
angle_coeff 	41	harmonic	63.25	112.09
angle_coeff 	42	harmonic	63.21	110.63
angle_coeff 	43	harmonic	63.25	112.09
angle_coeff 	44	harmonic	63.25	112.09
angle_coeff 	45	harmonic	63.66	112.26
angle_coeff 	46	harmonic	67.18	119.9701
angle_coeff 	47	harmonic	67.18	119.9701
angle_coeff 	48	harmonic	67.18	119.9701
angle_coeff 	49	harmonic	67.18	119.9701
angle_coeff 	50	harmonic	67.18	119.9701
angle_coeff 	51	harmonic	69.79	119.2001
angle_coeff 	52	harmonic	67.18	119.9701
angle_coeff 	53	harmonic	62.27	117.9701
angle_coeff 	54	harmonic	69.79	119.2001
angle_coeff 	55	harmonic	67.78	108.42
angle_coeff 	56	harmonic	67.72	109.43
angle_coeff 	57	harmonic	63.21	110.63
angle_coeff 	58	harmonic	67.72	109.43
angle_coeff 	59	harmonic	63.25	112.09
angle_coeff 	60	harmonic	67.18	119.9701
angle_coeff 	61	harmonic	67.18	119.9701
angle_coeff 	62	harmonic	67.18	119.9701
angle_coeff 	63	harmonic	67.18	119.9701
angle_coeff 	64	harmonic	67.18	119.9701
angle_coeff 	65	harmonic	69.79	119.2001
angle_coeff 	66	harmonic	67.18	119.9701
angle_coeff 	67	harmonic	62.27	117.9701
angle_coeff 	68	harmonic	69.79	119.2001
angle_coeff 	69	harmonic	67.78	108.42
angle_coeff 	70	harmonic	67.72	109.43
angle_coeff 	71	harmonic	63.21	110.63
angle_coeff 	72	harmonic	67.72	109.43
angle_coeff 	73	harmonic	63.84	120.6301
angle_coeff 	74	harmonic	63.84	120.6301
angle_coeff 	75	harmonic	63.84	120.6301
angle_coeff 	76	harmonic	63.84	120.6301
angle_coeff 	77	harmonic	63.25	112.09
angle_coeff 	78	harmonic	63.21	110.63
angle_coeff 	79	harmonic	63.25	112.09
angle_coeff 	80	harmonic	63.25	112.09
angle_coeff 	81	harmonic	63.66	112.26
angle_coeff 	82	harmonic	67.18	119.9701
angle_coeff 	83	harmonic	67.18	119.9701
angle_coeff 	84	harmonic	67.18	119.9701
angle_coeff 	85	harmonic	67.18	119.9701
angle_coeff 	86	harmonic	67.18	119.9701
angle_coeff 	87	harmonic	69.79	119.2001
angle_coeff 	88	harmonic	67.18	119.9701
angle_coeff 	89	harmonic	62.27	117.9701
angle_coeff 	90	harmonic	69.79	119.2001
angle_coeff 	91	harmonic	67.78	108.42
angle_coeff 	92	harmonic	67.72	109.43
angle_coeff 	93	harmonic	63.21	110.63
angle_coeff 	94	harmonic	67.72	109.43
angle_coeff 	95	harmonic	63.25	112.09
angle_coeff 	96	harmonic	67.18	119.9701
angle_coeff 	97	harmonic	67.18	119.9701
angle_coeff 	98	harmonic	67.18	119.9701
angle_coeff 	99	harmonic	67.18	119.9701
angle_coeff 	100	harmonic	67.18	119.9701
angle_coeff 	101	harmonic	69.79	119.2001
angle_coeff 	102	harmonic	67.18	119.9701
angle_coeff 	103	harmonic	62.27	117.9701
angle_coeff 	104	harmonic	69.79	119.2001
angle_coeff 	105	harmonic	67.78	108.42
angle_coeff 	106	harmonic	67.72	109.43
angle_coeff 	107	harmonic	63.21	110.63
angle_coeff 	108	harmonic	67.72	109.43
angle_coeff 	109	harmonic	63.84	120.6301
angle_coeff 	110	harmonic	63.84	120.6301
angle_coeff 	111	harmonic	63.84	120.6301
angle_coeff 	112	harmonic	63.84	120.6301
angle_coeff 	113	harmonic	63.25	112.09
angle_coeff 	114	harmonic	63.21	110.63
angle_coeff 	115	harmonic	63.25	112.09
angle_coeff 	116	harmonic	63.25	112.09
angle_coeff 	117	harmonic	63.66	112.26
angle_coeff 	118	harmonic	67.18	119.9701
angle_coeff 	119	harmonic	67.18	119.9701
angle_coeff 	120	harmonic	67.18	119.9701
angle_coeff 	121	harmonic	67.18	119.9701
angle_coeff 	122	harmonic	67.18	119.9701
angle_coeff 	123	harmonic	69.79	119.2001
angle_coeff 	124	harmonic	67.18	119.9701
angle_coeff 	125	harmonic	62.27	117.9701
angle_coeff 	126	harmonic	69.79	119.2001
angle_coeff 	127	harmonic	67.78	108.42
angle_coeff 	128	harmonic	67.72	109.43
angle_coeff 	129	harmonic	63.21	110.63
angle_coeff 	130	harmonic	67.72	109.43
angle_coeff 	131	harmonic	63.25	112.09
angle_coeff 	132	harmonic	67.18	119.9701
angle_coeff 	133	harmonic	67.18	119.9701
angle_coeff 	134	harmonic	67.18	119.9701
angle_coeff 	135	harmonic	67.18	119.9701
angle_coeff 	136	harmonic	67.18	119.9701
angle_coeff 	137	harmonic	69.79	119.2001
angle_coeff 	138	harmonic	67.18	119.9701
angle_coeff 	139	harmonic	62.27	117.9701
angle_coeff 	140	harmonic	69.79	119.2001
angle_coeff 	141	harmonic	67.78	108.42
angle_coeff 	142	harmonic	67.72	109.43
angle_coeff 	143	harmonic	63.21	110.63
angle_coeff 	144	harmonic	67.72	109.43
angle_coeff 	145	harmonic	63.84	120.6301
angle_coeff 	146	harmonic	63.84	120.6301
angle_coeff 	147	harmonic	63.84	120.6301
angle_coeff 	148	harmonic	63.84	120.6301
angle_coeff 	149	harmonic	63.25	112.09
angle_coeff 	150	harmonic	63.21	110.63
angle_coeff 	151	harmonic	63.25	112.09
angle_coeff 	152	harmonic	63.25	112.09
angle_coeff 	153	harmonic	63.66	112.26
angle_coeff 	154	harmonic	67.18	119.9701
angle_coeff 	155	harmonic	67.18	119.9701
angle_coeff 	156	harmonic	67.18	119.9701
angle_coeff 	157	harmonic	67.18	119.9701
angle_coeff 	158	harmonic	67.18	119.9701
angle_coeff 	159	harmonic	69.79	119.2001
angle_coeff 	160	harmonic	67.18	119.9701
angle_coeff 	161	harmonic	62.27	117.9701
angle_coeff 	162	harmonic	69.79	119.2001
angle_coeff 	163	harmonic	67.78	108.42
angle_coeff 	164	harmonic	67.72	109.43
angle_coeff 	165	harmonic	63.21	110.63
angle_coeff 	166	harmonic	67.72	109.43
angle_coeff 	167	harmonic	63.25	112.09
angle_coeff 	168	harmonic	67.18	119.9701
angle_coeff 	169	harmonic	67.18	119.9701
angle_coeff 	170	harmonic	67.18	119.9701
angle_coeff 	171	harmonic	67.18	119.9701
angle_coeff 	172	harmonic	67.18	119.9701
angle_coeff 	173	harmonic	69.79	119.2001
angle_coeff 	174	harmonic	67.18	119.9701
angle_coeff 	175	harmonic	62.27	117.9701
angle_coeff 	176	harmonic	69.79	119.2001
angle_coeff 	177	harmonic	67.78	108.42
angle_coeff 	178	harmonic	67.72	109.43
angle_coeff 	179	harmonic	63.21	110.63
angle_coeff 	180	harmonic	67.72	109.43
angle_coeff 	181	harmonic	66.18	110.38
angle_coeff 	182	harmonic	66.18	110.38
angle_coeff 	183	harmonic	64.01	110.9
angle_coeff 	184	harmonic	66.18	110.38
angle_coeff 	185	harmonic	66.18	110.38
angle_coeff 	186	harmonic	66.18	110.38
angle_coeff 	187	harmonic	66.18	110.38
angle_coeff 	188	harmonic	64.01	110.9
angle_coeff 	189	harmonic	66.18	110.38
angle_coeff 	190	harmonic	66.18	110.38
angle_coeff 	191	harmonic	46.37	110.05
angle_coeff 	192	harmonic	46.37	110.05
angle_coeff 	193	harmonic	46.37	110.05
angle_coeff 	194	harmonic	46.37	110.05
angle_coeff 	195	harmonic	46.37	110.05
angle_coeff 	196	harmonic	46.37	110.05
angle_coeff 	197	harmonic	39.43	108.35
angle_coeff 	198	harmonic	39.43	108.35
angle_coeff 	199	harmonic	39.43	108.35
angle_coeff 	200	harmonic	48.46	120.0101
angle_coeff 	201	harmonic	48.46	120.0101
angle_coeff 	202	harmonic	48.46	120.0101
angle_coeff 	203	harmonic	48.46	120.0101
angle_coeff 	204	harmonic	48.46	120.0101
angle_coeff 	205	harmonic	48.46	120.0101
angle_coeff 	206	harmonic	48.46	120.0101
angle_coeff 	207	harmonic	48.46	120.0101
angle_coeff 	208	harmonic	50.84	108.82
angle_coeff 	209	harmonic	50.84	108.82
angle_coeff 	210	harmonic	46.36	110.07
angle_coeff 	211	harmonic	39.18	109.55
angle_coeff 	212	harmonic	46.36	110.07
angle_coeff 	213	harmonic	46.36	110.07
angle_coeff 	214	harmonic	47.09	108.16
angle_coeff 	215	harmonic	46.37	110.05
angle_coeff 	216	harmonic	46.37	110.05
angle_coeff 	217	harmonic	46.37	110.05
angle_coeff 	218	harmonic	50.97	109.88
angle_coeff 	219	harmonic	46.36	110.07
angle_coeff 	220	harmonic	39.43	108.35
angle_coeff 	221	harmonic	39.43	108.35
angle_coeff 	222	harmonic	39.43	108.35
angle_coeff 	223	harmonic	39.43	108.35
angle_coeff 	224	harmonic	39.43	108.35
angle_coeff 	225	harmonic	39.43	108.35
angle_coeff 	226	harmonic	48.46	120.0101
angle_coeff 	227	harmonic	48.46	120.0101
angle_coeff 	228	harmonic	48.46	120.0101
angle_coeff 	229	harmonic	48.46	120.0101
angle_coeff 	230	harmonic	48.46	120.0101
angle_coeff 	231	harmonic	48.46	120.0101
angle_coeff 	232	harmonic	48.46	120.0101
angle_coeff 	233	harmonic	48.46	120.0101
angle_coeff 	234	harmonic	50.84	108.82
angle_coeff 	235	harmonic	50.84	108.82
angle_coeff 	236	harmonic	46.36	110.07
angle_coeff 	237	harmonic	39.18	109.55
angle_coeff 	238	harmonic	46.36	110.07
angle_coeff 	239	harmonic	46.36	110.07
angle_coeff 	240	harmonic	47.09	108.16
angle_coeff 	241	harmonic	46.37	110.05
angle_coeff 	242	harmonic	46.37	110.05
angle_coeff 	243	harmonic	46.37	110.05
angle_coeff 	244	harmonic	50.97	109.88
angle_coeff 	245	harmonic	46.36	110.07
angle_coeff 	246	harmonic	39.43	108.35
angle_coeff 	247	harmonic	39.43	108.35
angle_coeff 	248	harmonic	39.43	108.35
angle_coeff 	249	harmonic	46.37	110.05
angle_coeff 	250	harmonic	46.37	110.05
angle_coeff 	251	harmonic	46.37	110.05
angle_coeff 	252	harmonic	46.37	110.05
angle_coeff 	253	harmonic	46.37	110.05
angle_coeff 	254	harmonic	46.37	110.05
angle_coeff 	255	harmonic	39.43	108.35
angle_coeff 	256	harmonic	39.43	108.35
angle_coeff 	257	harmonic	39.43	108.35
angle_coeff 	258	harmonic	48.46	120.0101
angle_coeff 	259	harmonic	48.46	120.0101
angle_coeff 	260	harmonic	48.46	120.0101
angle_coeff 	261	harmonic	48.46	120.0101
angle_coeff 	262	harmonic	48.46	120.0101
angle_coeff 	263	harmonic	48.46	120.0101
angle_coeff 	264	harmonic	48.46	120.0101
angle_coeff 	265	harmonic	48.46	120.0101
angle_coeff 	266	harmonic	50.84	108.82
angle_coeff 	267	harmonic	50.84	108.82
angle_coeff 	268	harmonic	46.36	110.07
angle_coeff 	269	harmonic	39.18	109.55
angle_coeff 	270	harmonic	46.36	110.07
angle_coeff 	271	harmonic	46.36	110.07
angle_coeff 	272	harmonic	47.09	108.16
angle_coeff 	273	harmonic	46.37	110.05
angle_coeff 	274	harmonic	46.37	110.05
angle_coeff 	275	harmonic	46.37	110.05
angle_coeff 	276	harmonic	50.97	109.88
angle_coeff 	277	harmonic	46.36	110.07
angle_coeff 	278	harmonic	39.43	108.35
angle_coeff 	279	harmonic	39.43	108.35
angle_coeff 	280	harmonic	39.43	108.35
angle_coeff 	281	harmonic	39.43	108.35
angle_coeff 	282	harmonic	39.43	108.35
angle_coeff 	283	harmonic	39.43	108.35
angle_coeff 	284	harmonic	48.46	120.0101
angle_coeff 	285	harmonic	48.46	120.0101
angle_coeff 	286	harmonic	48.46	120.0101
angle_coeff 	287	harmonic	48.46	120.0101
angle_coeff 	288	harmonic	48.46	120.0101
angle_coeff 	289	harmonic	48.46	120.0101
angle_coeff 	290	harmonic	48.46	120.0101
angle_coeff 	291	harmonic	48.46	120.0101
angle_coeff 	292	harmonic	50.84	108.82
angle_coeff 	293	harmonic	50.84	108.82
angle_coeff 	294	harmonic	46.36	110.07
angle_coeff 	295	harmonic	39.18	109.55
angle_coeff 	296	harmonic	46.36	110.07
angle_coeff 	297	harmonic	46.36	110.07
angle_coeff 	298	harmonic	47.09	108.16
angle_coeff 	299	harmonic	46.37	110.05
angle_coeff 	300	harmonic	46.37	110.05
angle_coeff 	301	harmonic	46.37	110.05
angle_coeff 	302	harmonic	50.97	109.88
angle_coeff 	303	harmonic	46.36	110.07
angle_coeff 	304	harmonic	39.43	108.35
angle_coeff 	305	harmonic	39.43	108.35
angle_coeff 	306	harmonic	39.43	108.35
angle_coeff 	307	harmonic	46.37	110.05
angle_coeff 	308	harmonic	46.37	110.05
angle_coeff 	309	harmonic	46.37	110.05
angle_coeff 	310	harmonic	46.37	110.05
angle_coeff 	311	harmonic	46.37	110.05
angle_coeff 	312	harmonic	46.37	110.05
angle_coeff 	313	harmonic	39.43	108.35
angle_coeff 	314	harmonic	39.43	108.35
angle_coeff 	315	harmonic	39.43	108.35
angle_coeff 	316	harmonic	48.46	120.0101
angle_coeff 	317	harmonic	48.46	120.0101
angle_coeff 	318	harmonic	48.46	120.0101
angle_coeff 	319	harmonic	48.46	120.0101
angle_coeff 	320	harmonic	48.46	120.0101
angle_coeff 	321	harmonic	48.46	120.0101
angle_coeff 	322	harmonic	48.46	120.0101
angle_coeff 	323	harmonic	48.46	120.0101
angle_coeff 	324	harmonic	50.84	108.82
angle_coeff 	325	harmonic	50.84	108.82
angle_coeff 	326	harmonic	46.36	110.07
angle_coeff 	327	harmonic	39.18	109.55
angle_coeff 	328	harmonic	46.36	110.07
angle_coeff 	329	harmonic	46.36	110.07
angle_coeff 	330	harmonic	47.09	108.16
angle_coeff 	331	harmonic	46.37	110.05
angle_coeff 	332	harmonic	46.37	110.05
angle_coeff 	333	harmonic	46.37	110.05
angle_coeff 	334	harmonic	50.97	109.88
angle_coeff 	335	harmonic	46.36	110.07
angle_coeff 	336	harmonic	39.43	108.35
angle_coeff 	337	harmonic	39.43	108.35
angle_coeff 	338	harmonic	39.43	108.35
angle_coeff 	339	harmonic	39.43	108.35
angle_coeff 	340	harmonic	39.43	108.35
angle_coeff 	341	harmonic	39.43	108.35
angle_coeff 	342	harmonic	48.46	120.0101
angle_coeff 	343	harmonic	48.46	120.0101
angle_coeff 	344	harmonic	48.46	120.0101
angle_coeff 	345	harmonic	48.46	120.0101
angle_coeff 	346	harmonic	48.46	120.0101
angle_coeff 	347	harmonic	48.46	120.0101
angle_coeff 	348	harmonic	48.46	120.0101
angle_coeff 	349	harmonic	48.46	120.0101
angle_coeff 	350	harmonic	50.84	108.82
angle_coeff 	351	harmonic	50.84	108.82
angle_coeff 	352	harmonic	46.36	110.07
angle_coeff 	353	harmonic	39.18	109.55
angle_coeff 	354	harmonic	46.36	110.07
angle_coeff 	355	harmonic	46.36	110.07
angle_coeff 	356	harmonic	47.09	108.16
angle_coeff 	357	harmonic	46.37	110.05
angle_coeff 	358	harmonic	46.37	110.05
angle_coeff 	359	harmonic	46.37	110.05
angle_coeff 	360	harmonic	50.97	109.88
angle_coeff 	361	harmonic	46.36	110.07
angle_coeff 	362	harmonic	39.43	108.35
angle_coeff 	363	harmonic	39.43	108.35
angle_coeff 	364	harmonic	39.43	108.35
angle_coeff 	365	harmonic	46.37	110.05
angle_coeff 	366	harmonic	46.37	110.05
angle_coeff 	367	harmonic	46.37	110.05
angle_coeff 	368	harmonic	46.37	110.05
angle_coeff 	369	harmonic	46.37	110.05
angle_coeff 	370	harmonic	46.37	110.05
angle_coeff 	371	harmonic	39.43	108.35
angle_coeff 	372	harmonic	39.43	108.35
angle_coeff 	373	harmonic	39.43	108.35
angle_coeff 	374	harmonic	48.46	120.0101
angle_coeff 	375	harmonic	48.46	120.0101
angle_coeff 	376	harmonic	48.46	120.0101
angle_coeff 	377	harmonic	48.46	120.0101
angle_coeff 	378	harmonic	48.46	120.0101
angle_coeff 	379	harmonic	48.46	120.0101
angle_coeff 	380	harmonic	48.46	120.0101
angle_coeff 	381	harmonic	48.46	120.0101
angle_coeff 	382	harmonic	50.84	108.82
angle_coeff 	383	harmonic	50.84	108.82
angle_coeff 	384	harmonic	46.36	110.07
angle_coeff 	385	harmonic	39.18	109.55
angle_coeff 	386	harmonic	46.36	110.07
angle_coeff 	387	harmonic	46.36	110.07
angle_coeff 	388	harmonic	47.09	108.16
angle_coeff 	389	harmonic	46.37	110.05
angle_coeff 	390	harmonic	46.37	110.05
angle_coeff 	391	harmonic	46.37	110.05
angle_coeff 	392	harmonic	50.97	109.88
angle_coeff 	393	harmonic	46.36	110.07
angle_coeff 	394	harmonic	39.43	108.35
angle_coeff 	395	harmonic	39.43	108.35
angle_coeff 	396	harmonic	39.43	108.35
angle_coeff 	397	harmonic	39.43	108.35
angle_coeff 	398	harmonic	39.43	108.35
angle_coeff 	399	harmonic	39.43	108.35
angle_coeff 	400	harmonic	48.46	120.0101
angle_coeff 	401	harmonic	48.46	120.0101
angle_coeff 	402	harmonic	48.46	120.0101
angle_coeff 	403	harmonic	48.46	120.0101
angle_coeff 	404	harmonic	48.46	120.0101
angle_coeff 	405	harmonic	48.46	120.0101
angle_coeff 	406	harmonic	48.46	120.0101
angle_coeff 	407	harmonic	48.46	120.0101
angle_coeff 	408	harmonic	50.84	108.82
angle_coeff 	409	harmonic	50.84	108.82
angle_coeff 	410	harmonic	46.36	110.07
angle_coeff 	411	harmonic	39.18	109.55
angle_coeff 	412	harmonic	46.36	110.07
angle_coeff 	413	harmonic	46.36	110.07
angle_coeff 	414	harmonic	47.09	108.16
angle_coeff 	415	harmonic	46.37	110.05
angle_coeff 	416	harmonic	46.37	110.05
angle_coeff 	417	harmonic	46.37	110.05
angle_coeff 	418	harmonic	50.97	109.88
angle_coeff 	419	harmonic	46.36	110.07
angle_coeff 	420	harmonic	39.43	108.35
angle_coeff 	421	harmonic	39.43	108.35
angle_coeff 	422	harmonic	39.43	108.35
angle_coeff 	423	harmonic	46.37	110.05
angle_coeff 	424	harmonic	46.37	110.05
angle_coeff 	425	harmonic	46.37	110.05
angle_coeff 	426	harmonic	46.37	110.05
angle_coeff 	427	harmonic	46.37	110.05
angle_coeff 	428	harmonic	46.37	110.05
angle_coeff 	429	harmonic	39.43	108.35
angle_coeff 	430	harmonic	39.43	108.35